python/teste/teste42
5 4
2 2 3 5 0 4 1 4
3 8 2 3 1 9 0 9
3 7 2 6 0 9 1 9
2 6 0 3 3 10 1 9
1 9 2 8 3 7 0 6
