python/teste/teste42.lp
\ LP format - for model browsing. Use MPS format to capture full model detail.
Minimize
  - 5 x0 + 3 x1
Subject To
 constr(0): 5 x0 + x1 <= 5
 constr(1): 4 x0 - 5 x1 >= -10
 constr(2): 4 x0 - 5 x1 <= -0
Bounds
 x0 <= 1
 x1 <= 3
Generals
 x0 x1
End
